Version identifier: 12.10.0.0 | 2019-11-26 | 843d4de
CPXPARAM_WorkMem                                 28672
Tried aggregator 2 times.
Aggregator did 30 substitutions.
Reduced MIP has 170 rows, 225 columns, and 825 nonzeros.
Reduced MIP has 225 binaries, 0 generals, 0 SOSs, and 0 indicators.
Presolve time = 0,00 sec. (0,75 ticks)
Found incumbent of value 715,000000 after 0,00 sec. (1,56 ticks)
Probing time = 0,00 sec. (0,28 ticks)
Tried aggregator 1 time.
Detecting symmetries...
MIP Presolve eliminated 40 rows and 0 columns.
MIP Presolve added 80 rows and 0 columns.
Reduced MIP has 210 rows, 225 columns, and 865 nonzeros.
Reduced MIP has 225 binaries, 0 generals, 0 SOSs, and 0 indicators.
Presolve time = 0,00 sec. (1,05 ticks)
Probing time = 0,00 sec. (0,27 ticks)
Clique table members: 540.
MIP emphasis: balance optimality and feasibility.
MIP search method: dynamic search.
Parallel mode: deterministic, using up to 16 threads.
Root relaxation solution time = 0,00 sec. (0,81 ticks)

        Nodes                                         Cuts/
   Node  Left     Objective  IInf  Best Integer    Best Bound    ItCnt     Gap

*     0+    0                          715,0000        0,0000           100,00%
*     0+    0                          347,0000        0,0000           100,00%
*     0+    0                          316,0000        0,0000           100,00%
      0     0      143,0000   104      316,0000      143,0000       99   54,75%
      0     0      143,0000   104      316,0000     Cuts: 152      169   54,75%
      0     0      143,0000   104      316,0000     Cuts: 152      253   54,75%
*     0+    0                          303,0000      143,0000            52,81%
      0     2      154,3001   130      303,0000      143,0000      341   52,81%
Elapsed time = 0,07 sec. (32,51 ticks, tree = 0,02 MB, solutions = 4)
*   691   356      integral     0      302,0000      171,2072     5042   43,31%
*  1145+  676                          294,0000      183,3387            37,64%

Performing restart 1

Repeating presolve.
Tried aggregator 2 times.
MIP Presolve eliminated 18 rows and 13 columns.
MIP Presolve added 8 rows and 0 columns.
MIP Presolve modified 24 coefficients.
Aggregator did 4 substitutions.
Reduced MIP has 196 rows, 208 columns, and 778 nonzeros.
Reduced MIP has 208 binaries, 0 generals, 0 SOSs, and 0 indicators.
Presolve time = 0,00 sec. (1,07 ticks)
Tried aggregator 1 time.
Reduced MIP has 196 rows, 208 columns, and 778 nonzeros.
Reduced MIP has 208 binaries, 0 generals, 0 SOSs, and 0 indicators.
Presolve time = 0,00 sec. (0,74 ticks)
Represolve time = 0,01 sec. (4,80 ticks)
   4719     0      169,3471   164      294,0000      Cuts: 13    80247   18,68%
   4719     0      171,7422   164      294,0000       Cuts: 9    80287   18,68%
   4719     0      173,7692   164      294,0000       Cuts: 6    80345   18,68%
   4719     0      174,9148   164      294,0000      Cuts: 13    80412   18,68%
   4719     2      174,9148   206      294,0000      239,0788    80412   18,68%
   6310   807      276,6937    99      294,0000      239,0788   131381   18,68%
   9061  1967      289,4106    91      294,0000      252,6079   240118   14,08%
  11691  2095        cutoff            294,0000      270,0024   365531    8,16%

Clique cuts applied:  27
Cover cuts applied:  403
Mixed integer rounding cuts applied:  6
Zero-half cuts applied:  10
Gomory fractional cuts applied:  20

Root node processing (before b&c):
  Real time             =    0,07 sec. (32,40 ticks)
Parallel b&c, 16 threads:
  Real time             =    1,57 sec. (1131,50 ticks)
  Sync time (average)   =    0,49 sec.
  Wait time (average)   =    0,00 sec.
                          ------------
Total (root+branch&cut) =    1,64 sec. (1163,89 ticks)
